% demand
num_movements = 31;
loading_factor = [1350, 1450, 850, 1550, 1500, 1900, 1300, 1450, 850, 1350, 1350, 1000, 1000, 1400, 850, 1900, 1150, 1700, 900, 1250, 1200, 1550, 950, 900, 1800, 800, 1500, 1150, 1700, 1200, 1450];
pickup_time = [0, 0, 0, 0, 1, 1, 2, 2, 3, 3, 3, 4, 4, 4, 5, 7, 7, 7, 8, 8, 8, 11, 11, 11, 11, 11, 12, 12, 12, 12, 12];
delivery_time = [1, 1, 3, 1, 3, 4, 3, 3, 9, 5, 4, 7, 6, 7, 8, 8, 8, 8, 9, 10, 9, 12, 12, 12, 12, 12, 14, 14, 14, 14, 14];

% transporter definition
total_capacity = 7000;
num_decks = 3;
capacity = [3000, 1000, 3000];

% ways out of decks
num_ways_out = 1;
paths_out = array3d(decks, ways_out, decks, [
% ways out of deck d1
2, 3, 0, 

% ways out of deck d2
3, 0, 0, 

% ways out of deck d3
0, 0, 0,	

]);

